12 26
45 19
45 36
45 15
18 46
43 7
3 53.5
1 59.5
25 29.5
41 16.5
24 28.5
49 58.5
40 35.5
48 39
43 44
45 36
23 45
29 62
35 34
26 30
35 62.5
1 48.5
30 54.5
23 45.5
25 67.5
5 61.5
12 43.5
2 89
42 56
13 89
20 73
16 50
50 84
31 75
26 87.5
23 76.5
34 106.5
6 62.5
18 75.5
28 65.5
53 99.5
1 84
26 115
43 78
12 116
13 98
43 119
23 87
16 100.5
22 115.5
